&BANDS
   prefix  = 'sro',
   outdir  = './QE_tmp/',
   filband = 'sro_bands.dat'
   lsym    = .false.,
/
