begin unit_cell_cart
Angstrom
   3.908100056   0.000000000   0.000000000
   0.000000000   3.908100056   0.000000000
   0.000000000   0.000000000   3.908100056
end unit_cell_cart

begin atoms_frac
-XXXXX
end atoms_frac

! system
num_wann = 3
num_bands = -XXXXX
mp_grid 5 5 5

! job control
exclude_bands : -XXXXX
iprint = 2

! plotting
wannier_plot = false
wannier_plot_supercell = 3
bands_plot = true
bands_num_points = 100
bands_plot_format = gnuplot
write_hr = true
write_u_matrices = true

! disentanglement
dis_win_min = -XXXXX
dis_win_max = -XXXXX
dis_froz_min = -XXXXX
dis_froz_max = -XXXXX
dis_num_iter = 1000
dis_conv_tol = 1.0E-9
dis_mix_ratio = 0.9

! wannierisation
num_iter = 2000
conv_window = 5
conv_tol = 1e-12

begin kpoint_path
G 0.000000 0.000000 0.000000 X 0.500000 0.000000 0.000000
X 0.500000 0.000000 0.000000 R 0.500000 0.500000 0.500000
R 0.500000 0.500000 0.500000 G 0.000000 0.000000 0.000000
G 0.000000 0.000000 0.000000 R 0.500000 0.500000 0.500000
R 0.500000 0.500000 0.500000 X 0.500000 0.000000 0.000000
end kpoint_path

begin projections
-XXXXXX
end projections

begin kpoints
  0.00000000  0.00000000  0.00000000
  0.00000000  0.00000000  0.20000000
  0.00000000  0.00000000  0.40000000
  0.00000000  0.00000000  0.60000000
  0.00000000  0.00000000  0.80000000
  0.00000000  0.20000000  0.00000000
  0.00000000  0.20000000  0.20000000
  0.00000000  0.20000000  0.40000000
  0.00000000  0.20000000  0.60000000
  0.00000000  0.20000000  0.80000000
  0.00000000  0.40000000  0.00000000
  0.00000000  0.40000000  0.20000000
  0.00000000  0.40000000  0.40000000
  0.00000000  0.40000000  0.60000000
  0.00000000  0.40000000  0.80000000
  0.00000000  0.60000000  0.00000000
  0.00000000  0.60000000  0.20000000
  0.00000000  0.60000000  0.40000000
  0.00000000  0.60000000  0.60000000
  0.00000000  0.60000000  0.80000000
  0.00000000  0.80000000  0.00000000
  0.00000000  0.80000000  0.20000000
  0.00000000  0.80000000  0.40000000
  0.00000000  0.80000000  0.60000000
  0.00000000  0.80000000  0.80000000
  0.20000000  0.00000000  0.00000000
  0.20000000  0.00000000  0.20000000
  0.20000000  0.00000000  0.40000000
  0.20000000  0.00000000  0.60000000
  0.20000000  0.00000000  0.80000000
  0.20000000  0.20000000  0.00000000
  0.20000000  0.20000000  0.20000000
  0.20000000  0.20000000  0.40000000
  0.20000000  0.20000000  0.60000000
  0.20000000  0.20000000  0.80000000
  0.20000000  0.40000000  0.00000000
  0.20000000  0.40000000  0.20000000
  0.20000000  0.40000000  0.40000000
  0.20000000  0.40000000  0.60000000
  0.20000000  0.40000000  0.80000000
  0.20000000  0.60000000  0.00000000
  0.20000000  0.60000000  0.20000000
  0.20000000  0.60000000  0.40000000
  0.20000000  0.60000000  0.60000000
  0.20000000  0.60000000  0.80000000
  0.20000000  0.80000000  0.00000000
  0.20000000  0.80000000  0.20000000
  0.20000000  0.80000000  0.40000000
  0.20000000  0.80000000  0.60000000
  0.20000000  0.80000000  0.80000000
  0.40000000  0.00000000  0.00000000
  0.40000000  0.00000000  0.20000000
  0.40000000  0.00000000  0.40000000
  0.40000000  0.00000000  0.60000000
  0.40000000  0.00000000  0.80000000
  0.40000000  0.20000000  0.00000000
  0.40000000  0.20000000  0.20000000
  0.40000000  0.20000000  0.40000000
  0.40000000  0.20000000  0.60000000
  0.40000000  0.20000000  0.80000000
  0.40000000  0.40000000  0.00000000
  0.40000000  0.40000000  0.20000000
  0.40000000  0.40000000  0.40000000
  0.40000000  0.40000000  0.60000000
  0.40000000  0.40000000  0.80000000
  0.40000000  0.60000000  0.00000000
  0.40000000  0.60000000  0.20000000
  0.40000000  0.60000000  0.40000000
  0.40000000  0.60000000  0.60000000
  0.40000000  0.60000000  0.80000000
  0.40000000  0.80000000  0.00000000
  0.40000000  0.80000000  0.20000000
  0.40000000  0.80000000  0.40000000
  0.40000000  0.80000000  0.60000000
  0.40000000  0.80000000  0.80000000
  0.60000000  0.00000000  0.00000000
  0.60000000  0.00000000  0.20000000
  0.60000000  0.00000000  0.40000000
  0.60000000  0.00000000  0.60000000
  0.60000000  0.00000000  0.80000000
  0.60000000  0.20000000  0.00000000
  0.60000000  0.20000000  0.20000000
  0.60000000  0.20000000  0.40000000
  0.60000000  0.20000000  0.60000000
  0.60000000  0.20000000  0.80000000
  0.60000000  0.40000000  0.00000000
  0.60000000  0.40000000  0.20000000
  0.60000000  0.40000000  0.40000000
  0.60000000  0.40000000  0.60000000
  0.60000000  0.40000000  0.80000000
  0.60000000  0.60000000  0.00000000
  0.60000000  0.60000000  0.20000000
  0.60000000  0.60000000  0.40000000
  0.60000000  0.60000000  0.60000000
  0.60000000  0.60000000  0.80000000
  0.60000000  0.80000000  0.00000000
  0.60000000  0.80000000  0.20000000
  0.60000000  0.80000000  0.40000000
  0.60000000  0.80000000  0.60000000
  0.60000000  0.80000000  0.80000000
  0.80000000  0.00000000  0.00000000
  0.80000000  0.00000000  0.20000000
  0.80000000  0.00000000  0.40000000
  0.80000000  0.00000000  0.60000000
  0.80000000  0.00000000  0.80000000
  0.80000000  0.20000000  0.00000000
  0.80000000  0.20000000  0.20000000
  0.80000000  0.20000000  0.40000000
  0.80000000  0.20000000  0.60000000
  0.80000000  0.20000000  0.80000000
  0.80000000  0.40000000  0.00000000
  0.80000000  0.40000000  0.20000000
  0.80000000  0.40000000  0.40000000
  0.80000000  0.40000000  0.60000000
  0.80000000  0.40000000  0.80000000
  0.80000000  0.60000000  0.00000000
  0.80000000  0.60000000  0.20000000
  0.80000000  0.60000000  0.40000000
  0.80000000  0.60000000  0.60000000
  0.80000000  0.60000000  0.80000000
  0.80000000  0.80000000  0.00000000
  0.80000000  0.80000000  0.20000000
  0.80000000  0.80000000  0.40000000
  0.80000000  0.80000000  0.60000000
  0.80000000  0.80000000  0.80000000
end kpoints
